set Nodes := Bakersfield Modesto Clovis ;

set Arcs := BakerModI BakerModII ModBaker ModClov ClovMod ;

set ArcsIn[Bakersfield] := ModBaker ;
set ArcsIn[Clovis] := ModClov ;
set ArcsIn[Modesto] := BakerModI BakerModII ClovMod ;

set ArcsOut[Bakersfield] := BakerModI BakerModII ;
set ArcsOut[Clovis] := ClovMod ;
set ArcsOut[Modesto] := ModBaker ModClov ;

set ProfileSlots := Day Night ;

set ProductionModeMasterList := Nuclear Coal ;

#see page 159 of AMPL 2nd Edition
set ProductionModes[Bakersfield] := Nuclear Coal ;
set ProductionModes[Modesto] := Coal ;
set ProductionModes[Clovis] := Nuclear ;

param SlotHours := Day 1000 Night 2000 ;

param HourlyCosts := Nuclear 9 Coal 11 ;

param NodeDemands := Bakersfield Day   10
                     Modesto     Day   10
                     Modesto     Night 50
                     Clovis      Day   20 ;
                    

param ModeCapacity := Nuclear 111 Coal 99 ;

param ArcCapacity := BakerModI 100
                     BakerModII 100
                     ModBaker 200
                     ModClov 300
                     ClovMod 300;


